p cnf 56 64
-2 0 0
-2 -1 0
-3 0 0
-4 0 0
-5 0 0
-9 -8 0
-10 -8 0
-11 -8 0
-12 -8 0
-14 -8 0
-15 -8 0
-16 0 0
-17 0 0
-18 6 0
-19 7 0
-19 -13 0
-20 0 0
-22 21 0
-23 21 0
-23 0 0
-23 0 0
-24 21 0
-24 0 0
-24 23 0
-25 21 0
-25 0 0
-25 24 0
-26 21 0
-27 21 0
-28 21 0
-28 0 0
-29 21 0
-29 0 0
-30 21 0
-31 21 0
-31 0 0
-33 32 0
-34 32 0
-35 32 0
-36 32 0
-37 32 0
-37 0 0
-39 38 0
-40 38 0
-40 33 0
-41 38 0
-41 34 0
-42 38 0
-42 35 0
-43 38 0
-43 36 0
-44 38 0
-44 37 0
-45 -8 0
-46 -8 0
-47 -8 0
-48 -8 0
-49 -8 0
-50 -8 0
-51 -8 0
-52 -8 0
-53 -8 0
-54 -8 0
-55 -8 0
